Geometry = xyzFormat {
12
Molecule ID: 7294
C -1.617820 0.188651 1.015264
O -0.315466 0.473148 0.543120
C 0.804588 -0.269266 0.946424
O 0.571791 -1.203127 1.754836
C 2.136090 0.032105 0.455091
C 2.327940 1.018425 -0.388834
H -1.666516 0.329180 2.128153
H -1.943826 -0.840410 0.782450
H -2.302091 0.890043 0.500256
H 2.950374 -0.594199 0.819262
H 1.493991 1.608523 -0.719724
H 3.332380 1.249342 -0.762419
}
Driver = GeometryOptimization {
  Optimizer = Rational {
    DiagLimit = 1.0000000000000000E-002
  }
  MaxSteps = 10000
  OutputPrefix = '7294'
  Convergence = {
    GradElem = 1E-4
    Energy = 1.7976931348623157E+308
    GradNorm = 1.7976931348623157E+308
    DispNorm = 1.7976931348623157E+308
    DispElem = 1.7976931348623157E+308
  }
  LatticeOpt = No
  MovedAtoms = "1:-1"
  AppendGeometries = No
}
Hamiltonian = DFTB {
  SCC = Yes
  SCCTolerance = 1e-9
  MaxSCCIterations = 1000
  MaxAngularMomentum = {
    C = "p"
    H = "s"
    O = "p"
  }
  SlaterKosterFiles = Type2FileNames {
    Prefix = '../../3ob-3-1/'
    Separator = '-'
    Suffix = '.skf'
    LowerCaseTypeName = No
  }
  Filling = Fermi {
    Temperature [K] = 300
  }
  PolynomialRepulsive = {}
  ShellResolvedSCC = No
  OldSKInterpolation = No
  ReadInitialCharges = No
  InitialCharges = {}
  ConvergentSCCOnly = Yes
  HCorrection = None {}
  SpinPolarisation = {}
  ElectricField = {}
  Solver = RelativelyRobust {}
  Charge = 0.0000000000000000
  OnSiteCorrection = {}
  Dispersion = {}
  Solvation = {}
  Electrostatics = GammaFunctional {}
  ThirdOrder = No
  ThirdOrderFull = No
  Differentiation = FiniteDiff {
    Delta = 1.2207031250000000E-004
  }
  ForceEvaluation = "Traditional"
  Mixer = Broyden {
    MixingParameter = 0.20000000000000001
    InverseJacobiWeight = 1.0000000000000000E-002
    MinimalWeight = 1.0000000000000000
    MaximalWeight = 100000.00000000000
    WeightFactor = 1.0000000000000000E-002
  }
}
Analysis = {
  Polarisability = {
    Static = Yes
  }
  ProjectStates = {}
  WriteEigenvectors = No
  WriteBandOut = Yes
  PertubDegenTol = 128.00000000000000
  MaxPerturbIter = 100
  PerturbSccTol = 1.0000000000000001E-005
  ConvergedPerturb = Yes
  MullikenAnalysis = Yes
  WriteNetCharges = No
  AtomResolvedEnergies = No
  PrintForces = No
}
ElectronDynamics = {
  Steps = 30000
  TimeStep [au] = 0.1
  Perturbation = Kick {
    PolarizationDirection = all
    SpinType = "Singlet"
  }
  FieldStrength [v/a] = 0.001
  Populations = No
  WriteFrequency = 50
  Restart = No
  WriteRestart = Yes
  WriteAsciiRestart = No
  RestartFrequency = 3000
  Forces = No
  WriteBondEnergy = No
  WriteBondPopulation = No
  WriteAtomicEnergies = No
  Pump = No
  FillingsFromFile = No
  Probe = No
  EulerFrequency = 0
  WriteEnergyAndCharges = No
  EnvelopeShape = Constant {}
  IonDynamics = No
}
ParserOptions = {
  ParserVersion = 14
  WriteHSDInput = Yes
  StopAfterParsing = No
  IgnoreUnprocessedNodes = No
}
Reks = None {}
ExcitedState = {}
Options = {
  WriteDetailedOut = Yes
  WriteAutotestTag = No
  WriteDetailedXML = No
  WriteResultsTag = No
  RandomSeed = 0
  WriteHS = No
  WriteRealHS = No
  MinimiseMemoryUsage = No
  ShowFoldedCoords = No
  TimingVerbosity = 1
  WriteCharges = Yes
  WriteChargesAsText = No
  BinaryAccessTypes = {
 "stream"
  }
}
