Geometry = xyzFormat {
32
Molecule ID: 15621059
C -2.296005 2.164339 4.574963
C -2.018480 0.903082 4.360923
C -0.827902 0.569705 3.577154
O -0.531558 -0.653685 3.353537
O 0.007886 1.517913 3.056249
C 1.162959 1.330365 2.299075
C 0.959649 0.603470 1.018631
C 1.163255 -0.750684 0.874711
C 0.948373 -1.410731 -0.335083
C 0.518764 -0.736374 -1.456166
C 0.315126 0.618261 -1.313882
C 0.523776 1.280929 -0.124087
C 0.290036 -1.408110 -2.730741
C 1.046172 -2.500698 -3.098840
C 0.848668 -3.165747 -4.311146
C -0.126215 -2.727776 -5.172809
C -0.889104 -1.643219 -4.826041
C -0.677881 -0.998352 -3.621009
H -1.670030 2.962569 4.188359
H -3.161933 2.435737 5.146544
H -2.645870 0.130411 4.748702
H 1.497681 2.366711 1.990535
H 2.008114 0.907218 2.884090
H 1.513668 -1.303857 1.741946
H 1.121113 -2.474662 -0.400362
H -0.023622 1.155124 -2.195610
H 0.363796 2.345891 -0.011775
H 1.810671 -2.847371 -2.428726
H 1.452581 -4.014916 -4.573384
H -0.306501 -3.225454 -6.128479
H -1.655053 -1.318838 -5.529801
H -1.309652 -0.149533 -3.402512
}
Driver = GeometryOptimization {
  Optimizer = Rational {
    DiagLimit = 1.0000000000000000E-002
  }
  MaxSteps = 10000
  OutputPrefix = '15621059'
  Convergence = {
    GradElem = 1E-4
    Energy = 1.7976931348623157E+308
    GradNorm = 1.7976931348623157E+308
    DispNorm = 1.7976931348623157E+308
    DispElem = 1.7976931348623157E+308
  }
  LatticeOpt = No
  MovedAtoms = "1:-1"
  AppendGeometries = No
}
Hamiltonian = DFTB {
  SCC = Yes
  SCCTolerance = 1e-9
  MaxSCCIterations = 1000
  MaxAngularMomentum = {
    C = "p"
    H = "s"
    O = "p"
  }
  SlaterKosterFiles = Type2FileNames {
    Prefix = '../../3ob-3-1/'
    Separator = '-'
    Suffix = '.skf'
    LowerCaseTypeName = No
  }
  PolynomialRepulsive = {}
  ShellResolvedSCC = No
  OldSKInterpolation = No
  ReadInitialCharges = No
  InitialCharges = {}
  ConvergentSCCOnly = Yes
  HCorrection = None {}
  SpinPolarisation = {}
  ElectricField = {}
  Solver = RelativelyRobust {}
  Charge = 0.0000000000000000
  OnSiteCorrection = {}
  Dispersion = {}
  Solvation = {}
  Electrostatics = GammaFunctional {}
  ThirdOrder = No
  ThirdOrderFull = No
  Differentiation = FiniteDiff {
    Delta = 1.2207031250000000E-004
  }
  ForceEvaluation = "Traditional"
  Mixer = Broyden {
    MixingParameter = 0.20000000000000001
    InverseJacobiWeight = 1.0000000000000000E-002
    MinimalWeight = 1.0000000000000000
    MaximalWeight = 100000.00000000000
    WeightFactor = 1.0000000000000000E-002
  }
  Filling = Fermi {
    Temperature = 0.0000000000000000
  }
}
Analysis = {
  Polarisability = {
    Static = Yes
  }
  ProjectStates = {}
  WriteEigenvectors = No
  WriteBandOut = Yes
  PertubDegenTol = 128.00000000000000
  MaxPerturbIter = 100
  PerturbSccTol = 1.0000000000000001E-005
  ConvergedPerturb = Yes
  MullikenAnalysis = Yes
  WriteNetCharges = No
  AtomResolvedEnergies = No
  PrintForces = No
}
ParserOptions = {
  ParserVersion = 14
  WriteHSDInput = Yes
  StopAfterParsing = No
  IgnoreUnprocessedNodes = No
}
Reks = None {}
ExcitedState = {}
Options = {
  WriteDetailedOut = Yes
  WriteAutotestTag = No
  WriteDetailedXML = No
  WriteResultsTag = No
  RandomSeed = 0
  WriteHS = No
  WriteRealHS = No
  MinimiseMemoryUsage = No
  ShowFoldedCoords = No
  TimingVerbosity = 1
  WriteCharges = Yes
  WriteChargesAsText = No
  BinaryAccessTypes = {
 "stream"
  }
}
