Geometry = xyzFormat {
21
Molecule ID: 8846
C 0.403662 0.583786 -2.711131
C -0.306273 1.220061 -1.556917
C -1.332394 0.214069 -1.027408
C -0.598953 -1.034148 -0.584055
O 0.337525 -0.782719 0.432984
C 0.010790 -0.261825 1.654149
O -1.183739 0.015687 1.906027
C 1.031466 -0.030271 2.652540
C 2.290840 -0.315846 2.405134
H -0.340673 0.005246 -3.307940
H 1.183265 -0.140889 -2.391635
H 0.795203 1.365237 -3.390915
H -0.853157 2.112165 -1.911599
H 0.356895 1.531130 -0.741424
H -2.015552 -0.084826 -1.840044
H -1.867437 0.711994 -0.217983
H -1.359472 -1.743374 -0.213256
H -0.091111 -1.465183 -1.468519
H 0.787403 0.382822 3.626789
H 3.050303 -0.146703 3.139848
H 2.565890 -0.728198 1.444887
}
Driver = GeometryOptimization {
  Optimizer = Rational {
    DiagLimit = 1.0000000000000000E-002
  }
  MaxSteps = 10000
  OutputPrefix = '8846'
  Convergence = {
    GradElem = 1E-4
    Energy = 1.7976931348623157E+308
    GradNorm = 1.7976931348623157E+308
    DispNorm = 1.7976931348623157E+308
    DispElem = 1.7976931348623157E+308
  }
  LatticeOpt = No
  MovedAtoms = "1:-1"
  AppendGeometries = No
}
Hamiltonian = DFTB {
  SCC = Yes
  SCCTolerance = 1e-9
  MaxSCCIterations = 1000
  MaxAngularMomentum = {
    C = "p"
    H = "s"
    O = "p"
  }
  SlaterKosterFiles = Type2FileNames {
    Prefix = '../../3ob-3-1/'
    Separator = '-'
    Suffix = '.skf'
    LowerCaseTypeName = No
  }
  PolynomialRepulsive = {}
  ShellResolvedSCC = No
  OldSKInterpolation = No
  ReadInitialCharges = No
  InitialCharges = {}
  ConvergentSCCOnly = Yes
  HCorrection = None {}
  SpinPolarisation = {}
  ElectricField = {}
  Solver = RelativelyRobust {}
  Charge = 0.0000000000000000
  OnSiteCorrection = {}
  Dispersion = {}
  Solvation = {}
  Electrostatics = GammaFunctional {}
  ThirdOrder = No
  ThirdOrderFull = No
  Differentiation = FiniteDiff {
    Delta = 1.2207031250000000E-004
  }
  ForceEvaluation = "Traditional"
  Mixer = Broyden {
    MixingParameter = 0.20000000000000001
    InverseJacobiWeight = 1.0000000000000000E-002
    MinimalWeight = 1.0000000000000000
    MaximalWeight = 100000.00000000000
    WeightFactor = 1.0000000000000000E-002
  }
  Filling = Fermi {
    Temperature = 0.0000000000000000
  }
}
Analysis = {
  Polarisability = {
    Static = Yes
  }
  ProjectStates = {}
  WriteEigenvectors = No
  WriteBandOut = Yes
  PertubDegenTol = 128.00000000000000
  MaxPerturbIter = 100
  PerturbSccTol = 1.0000000000000001E-005
  ConvergedPerturb = Yes
  MullikenAnalysis = Yes
  WriteNetCharges = No
  AtomResolvedEnergies = No
  PrintForces = No
}
ParserOptions = {
  ParserVersion = 14
  WriteHSDInput = Yes
  StopAfterParsing = No
  IgnoreUnprocessedNodes = No
}
Reks = None {}
ExcitedState = {}
Options = {
  WriteDetailedOut = Yes
  WriteAutotestTag = No
  WriteDetailedXML = No
  WriteResultsTag = No
  RandomSeed = 0
  WriteHS = No
  WriteRealHS = No
  MinimiseMemoryUsage = No
  ShowFoldedCoords = No
  TimingVerbosity = 1
  WriteCharges = Yes
  WriteChargesAsText = No
  BinaryAccessTypes = {
 "stream"
  }
}
